NAME          MINQDUAL
ROWS
 N  COST
 L  LIM1
 L  LIM2
 L  LIM3
 L  LIM4
COLUMNS
    XONE      COST             -.102   LIM1              .785
    XONE      LIM2              .785   LIM3              .785 
    XONE      LIM4              .785 
    XTWO      COST             -.095   LIM1              .785
    XTWO      LIM2              .674   LIM3              .674
    XTWO      LIM4              .674
    XTHR      COST             -.1     LIM1              .785
    XTHR      LIM2              .674   LIM3              .578
    XTHR      LIM4              .578
    XFOU      COST             -.112   LIM1              .785
    XFOU      LIM2              .674   LIM3              .578
    XFOU      LIM4              .351
RHS
    RHS1      LIM1                 1   LIM2                 1 
    RHS1      LIM3                 1   LIM4                 1 
ENDATA
